WARNING: for repeatability, setting FPU to use double precision
============================[ Problem Statistics ]=============================
|                                                                             |
|  Number of variables:        277976                                         |
|  Number of clauses:        10103923                                         |
|  Parse time:                   1.72 s                                       |
|                                                                             |
c ============================[ Search Statistics ]==============================
c | Conflicts |          ORIGINAL         |          LEARNT          | Progress |
c |           |    Vars  Clauses Literals |    Limit  Clauses Lit/Cl |          |
c ===============================================================================
c Switched to VSIDS.
c Switched to LRB.
c Switched to VSIDS.
c Switched to LRB.
c Switched to VSIDS.
c Switched to LRB.
c Switched to VSIDS.
c Switched to LRB.
c Switched to VSIDS.
c Switched to LRB.
c Switched to VSIDS.
c Switched to LRB.
c Switched to VSIDS.
c Switched to LRB.
c Switched to VSIDS.
c Switched to LRB.
c Switched to VSIDS.
c Switched to LRB.
c Switched to VSIDS.
c Switched to LRB.
c Switched to VSIDS.
c Switched to LRB.
c Switched to VSIDS.
c Switched to LRB.
c Switched to VSIDS.
c Switched to LRB.
c Switched to VSIDS.
c Switched to LRB.
c Switched to VSIDS.
c Switched to LRB.
c Switched to VSIDS.
c Switched to LRB.
c Switched to VSIDS.
c Switched to LRB.
c Switched to VSIDS.
c Switched to LRB.
c Switched to VSIDS.
c Switched to LRB.
c ===============================================================================
restarts                  : 16105
conflicts                 : 3597603        (1011 /sec)
decisions                 : 215483910      (0.00 % random) (60554 /sec)
propagations              : 12451879268    (3499126 /sec)
conflict literals         : 1757900672     (10.82 % deleted)

conflicts w/ DIP found    : 1755241        (48.79 % of conflicts)
conflicts w/ dangerous DIP: 0              (0.00 % of conflicts)
conflicts w/ DIP-learning : 20426          (0.57 % of conflicts)
decisions on ext vars     : 99841          (0.05 % of decisions)
total ext vars            : 709         
tried delete ext vars     : 0           
deleted ext vars          : 0           
max ext vars              : 709         

Memory used               : 1510.00 MB
CPU time                  : 3558.57 s
DIP computation time      : 49.3827 s (1.39 % of total time)
ER_sel time               : 9.18053 s
ER_add time               : 0.009543 s
ER_delC time              : 0 s
ER_delV time              : 0 s
ER_sub time               : 12.0213 s
ER_stat time              : 0 s

INDETERMINATE
